c randN150_K5_R0.2_L30_35.cnf
p cnf 150 30
97 -121 -144 -108 24 0
-31 132 -105 -8 122 0
-26 -116 -19 144 -67 0
-24 -52 48 -142 86 0
33 42 52 -10 -69 0
-126 -92 4 81 88 0
-94 -124 141 -104 -103 0
-63 -83 -137 -136 -98 0
-28 -149 -76 -35 -34 0
64 65 -46 119 95 0
-31 3 89 -70 -102 0
32 133 77 46 -136 0
18 117 -10 -134 -66 0
-127 2 -28 -81 62 0
-94 -114 47 -112 -4 0
141 113 -47 54 94 0
4 -86 -85 76 -136 0
-27 -50 -111 -138 120 0
-64 34 12 58 -66 0
-27 -67 -44 118 -3 0
33 70 -54 -116 -35 0
-29 102 139 -13 -2 0
-122 107 -81 -80 17 0
73 -16 -138 -102 29 0
99 100 49 -9 -101 0
1 75 112 22 -73 0
11 -108 -12 -133 62 0
111 50 52 123 -68 0
-94 -23 19 88 124 0
97 45 -70 60 61 0
